
  26    0


   0  15 2 3 4 5 6 7 8 9 11 20 21 22 23 24 25 
   9   5 19 17 14 13 12 
   9   4 19 18 16 14 
   9   4 17 15 13 12 
   9   3 18 16 12 
   8   2 13 10 
   3   2 17 15 
   8   2 16 13 
  10   2 15 12 
   4   1 14 
  10   1 12 
   1   1 26
   3   1 26
   1   1 26
   4   1 26
   5   1 26
   3   1 26
   3   1 26
   5   1 26
   4   1 26
   7   1 26
   9   1 26
   1   1 26
   3   1 26
   7   1 26
   0   0 
